NAME: ACTUAL_TOURS/amz0904
TYPE: TOUR
COMMENT: RouteID_60c93ab8-6f75-4a2f-8430-c6e7a7a3c050
DIMENSION: 165
TOUR_SECTION
100
54
53
85
127
68
93
52
101
2
83
115
30
14
15
137
56
5
38
34
153
63
28
156
74
40
73
3
59
8
26
81
149
126
131
12
1
150
86
69
122
57
91
41
23
104
112
109
154
60
78
110
114
6
75
97
95
120
94
66
62
61
84
46
105
49
143
144
123
4
124
116
67
96
44
162
161
140
111
90
145
20
65
36
35
98
92
10
164
70
42
43
29
18
76
138
103
133
160
130
37
79
125
113
55
163
102
82
9
108
134
142
147
121
27
13
136
87
135
25
31
106
89
58
71
152
146
48
39
118
155
21
139
165
17
32
16
159
7
33
47
11
128
119
80
51
72
157
45
132
64
107
24
158
22
99
151
148
129
88
141
50
19
117
77
-1
EOF
